WARNING: for repeatability, setting FPU to use double precision
 -----------------------------------------------------------------------------------------------------------------------
|                                 manysat2.0    4 thread(s) on 8 core(s)                                                |
 -----------------------------------------------------------------------------------------------------------------------
 ===============================================[ Problem Statistics ]==================================================
|                                                                                                                       |
|  Number of cores:                 4                                                                                   |
|  Number of variables:         69789                                                                                   |
|  Number of clauses:          968294                                                                                   |
|  Parse time:                   0.47 s                                                                                 |
|                                                                                                                       |
 ==============================================[ Search Statistics ]====================================================
|   Thread  | Conflicts |          ORIGINAL         |          LEARNT          |  exported  / imported      |  Progress |
|    (id)   |           |    Vars  Clauses Literals |    Limit  Clauses Lit/Cl |  (clauses by restart)      |           |
 =======================================================================================================================
|         2 |       100 |   69783   968266  2788306 |   355041      161     30 |           0  -          61 |  0.009 %  |
|         0 |       100 |   69783   968266  2788306 |   355030      146     30 |           0  -          46 |  0.009 %  |
|         1 |       100 |   69783   968266  2788306 |   355041      175     19 |           0  -          75 |  0.009 %  |
|         3 |       100 |   69783   968266  2788306 |   355041      192     22 |           0  -          92 |  0.009 %  |
|         0 |       250 |   69783   968266  2788306 |   390533      348     32 |           0  -          98 |  0.009 %  |
|         2 |       250 |   69783   968266  2788306 |   390545      371     28 |           0  -         121 |  0.009 %  |
|         1 |       250 |   69783   968266  2788306 |   390545      408     24 |           0  -         158 |  0.009 %  |
|         3 |       250 |   69783   968266  2788306 |   390545      427     25 |           0  -         177 |  0.009 %  |
|         2 |       475 |   69783   968266  2788306 |   429599      687     25 |           0  -         212 |  0.009 %  |
|         0 |       475 |   69783   968266  2788306 |   429587      714     38 |           0  -         239 |  0.009 %  |
|         1 |       475 |   69783   968266  2788306 |   429599      755     24 |           0  -         280 |  0.009 %  |
|         3 |       475 |   69783   968266  2788306 |   429599      854     23 |           0  -         379 |  0.009 %  |
|         0 |       812 |   69783   968266  2788306 |   472546     1233     32 |           0  -         421 |  0.009 %  |
|         1 |       812 |   69783   968266  2788306 |   472559     1211     26 |           0  -         399 |  0.009 %  |
|         2 |       812 |   69783   968266  2788306 |   472559     1307     23 |           0  -         495 |  0.009 %  |
|         1 |      1318 |   69783   968266  2788306 |   519815     1800     27 |           0  -         482 |  0.009 %  |
|         0 |      1318 |   69783   968266  2788306 |   519800     1924     31 |           0  -         606 |  0.009 %  |
|         3 |       812 |   69783   968266  2788306 |   472559     1514     22 |           0  -         702 |  0.009 %  |
|         0 |      2077 |   69783   968266  2788306 |   571780     2843     33 |           0  -         766 |  0.009 %  |
|         3 |      1318 |   69783   968266  2788306 |   519815     2162     25 |           0  -         844 |  0.009 %  |
|         2 |      1318 |   69783   968266  2788306 |   519815     2138     23 |           0  -         820 |  0.009 %  |
|         1 |      2077 |   69783   968266  2788306 |   571797     2821     28 |           0  -         744 |  0.009 %  |
|         3 |      2077 |   69783   968266  2788306 |   571797     3015     32 |           0  -         938 |  0.009 %  |
|         2 |      2077 |   69783   968266  2788306 |   571797     3012     26 |           0  -         935 |  0.009 %  |
|         0 |      3216 |   69783   968266  2788306 |   628958     4205     41 |           0  -         989 |  0.009 %  |
|         1 |      3216 |   69783   968266  2788306 |   628977     4165     29 |           0  -         949 |  0.009 %  |
|         3 |      3216 |   69783   968266  2788306 |   628977     4363     41 |           0  -        1147 |  0.009 %  |
|         2 |      3216 |   69783   968266  2788306 |   628977     4341     27 |           0  -        1125 |  0.009 %  |
|         0 |      4924 |   69783   968266  2788306 |   691854     6153     42 |           0  -        1228 |  0.009 %  |
|         1 |      4924 |   69783   968266  2788306 |   691874     6098     33 |           0  -        1174 |  0.009 %  |
|         3 |      4924 |   69783   968266  2788306 |   691874     6215     39 |           0  -        1290 |  0.009 %  |
|         2 |      4924 |   69783   968266  2788306 |   691874     6229     30 |           0  -        1304 |  0.009 %  |
|         0 |      7486 |   69783   968266  2788306 |   761040     8901     43 |           0  -        1410 |  0.009 %  |
|         3 |      7486 |   69783   968266  2788306 |   761062     8993     42 |           0  -        1504 |  0.009 %  |
|         2 |      7486 |   69783   968266  2788306 |   761062     8971     34 |           0  -        1483 |  0.009 %  |
|         1 |      7486 |   69783   968266  2788306 |   761062     8848     42 |           0  -        1362 |  0.009 %  |
|         0 |     11330 |   69783   968266  2788306 |   837144    13019     39 |           0  -        1684 |  0.009 %  |
|         2 |     11330 |   69783   968266  2788306 |   837168    13078     35 |           0  -        1743 |  0.009 %  |
|         3 |     11330 |   69783   968266  2788306 |   837168    13452     38 |           0  -        2107 |  0.009 %  |
|         1 |     11330 |   69783   968266  2788306 |   837168    13679     39 |           0  -        2344 |  0.009 %  |
|         2 |     17096 |   69783   968266  2788306 |   920885    19872     47 |           0  -        2765 |  0.009 %  |
|         0 |     17096 |   69783   968266  2788306 |   920858    19980     46 |           0  -        2875 |  0.009 %  |
|         3 |     17096 |   69783   968266  2788306 |   920885    20421     42 |           0  -        3304 |  0.009 %  |
|         1 |     17096 |   69783   968266  2788306 |   920885    20406     78 |           0  -        3305 |  0.009 %  |
|         3 |     25745 |   69783   968266  2788306 |  1012973    29676     57 |           0  -        3910 |  0.009 %  |
|         0 |     25745 |   69783   968266  2788306 |  1012944    29775     55 |           0  -        4021 |  0.009 %  |
|         2 |     25745 |   69783   968266  2788306 |  1012973    29810     61 |           7  -        4054 |  0.009 %  |
|         1 |     25745 |   69783   968266  2788306 |  1012973    29678     95 |           7  -        3928 |  0.009 %  |
|         3 |     38719 |   69783   968266  2788306 |  1114271    44038     83 |           7  -        5298 |  0.009 %  |
|         1 |     38719 |   69782   963115  2777938 |  1114271    43374     83 |           7  -        4941 |  0.010 %  |
|         2 |     38719 |   69782   963115  2777938 |  1114271    43698     73 |           7  -        5263 |  0.010 %  |
|         0 |     38719 |   69782   963115  2777938 |  1114238    43556     58 |           0  -        5260 |  0.010 %  |
|         0 |     58180 |   69782   963115  2777938 |  1225662    63842     75 |           0  -        6085 |  0.010 %  |
|         2 |     58180 |   69782   963115  2777938 |  1225698    63815     76 |           7  -        5919 |  0.010 %  |
|         1 |     58180 |   69782   963115  2777938 |  1225698    63919    107 |           7  -        6025 |  0.010 %  |
|         3 |     58180 |   69782   963115  2777938 |  1225698    64542    151 |           7  -        6695 |  0.010 %  |
|         0 |     87372 |   69782   963115  2777938 |  1348229    93320     74 |           0  -        6371 |  0.010 %  |
|         3 |     87372 |   69782   963115  2777938 |  1348268    93976    180 |           7  -        6937 |  0.010 %  |
|         1 |     87372 |   69782   963115  2777938 |  1348268    93633    153 |           7  -        6547 |  0.010 %  |
|         2 |     87372 |   69782   963115  2777938 |  1348268    93704     98 |           7  -        6616 |  0.010 %  |
|         2 |    131161 |   69782   963115  2777938 |  1483094   137757    103 |           7  -        6880 |  0.010 %  |
|         1 |    131161 |   69782   963115  2777938 |  1483094   137650    133 |           7  -        6775 |  0.010 %  |
|         0 |    131161 |   69782   963115  2777938 |  1483052   137778    116 |           0  -        7040 |  0.010 %  |
|         3 |    131161 |   69782   963115  2777938 |  1483094   138376    169 |           7  -        7548 |  0.010 %  |
|         0 |    196845 |   69782   963115  2777938 |  1631357   203862     94 |           0  -        7440 |  0.010 %  |
|         3 |    196845 |   69782   963115  2777938 |  1631404   204371    145 |           7  -        7855 |  0.010 %  |
|         2 |    196845 |   69782   963115  2777938 |  1631404   204323    136 |           7  -        7761 |  0.010 %  |
|         1 |    196845 |   69782   963115  2777938 |  1631404   204255    147 |           7  -        7696 |  0.010 %  |
|         1 |    295371 |   69782   963115  2777938 |  1794544   303013    133 |           7  -        7928 |  0.010 %  |
|         2 |    295371 |   69782   963115  2777938 |  1794544   303088    149 |           7  -        8000 |  0.010 %  |
|         3 |    295371 |   69782   963115  2777938 |  1794544   303461    154 |           7  -        8419 |  0.010 %  |
|         0 |    295371 |   69782   963115  2777938 |  1794492   303111    128 |           0  -        8163 |  0.010 %  |
|         1 |    443160 |   69782   963115  2777938 |  1973999   451181    157 |           7  -        8307 |  0.010 %  |
|         0 |    443160 |   69782   963115  2777938 |  1973942   451121    129 |           0  -        8384 |  0.010 %  |
|         3 |    443160 |   69782   963115  2777938 |  1973999   451612    149 |           7  -        8781 |  0.010 %  |
|         2 |    443160 |   69782   963115  2777938 |  1973999   451242    156 |           7  -        8365 |  0.010 %  |
